p edge 74 812
e 1 7
e 1 9
e 1 13
e 1 14
e 1 16
e 1 24
e 1 27
e 1 28
e 1 33
e 1 36
e 1 37
e 1 38
e 1 42
e 1 47
e 1 49
e 1 52
e 1 57
e 1 60
e 1 61
e 1 65
e 1 66
e 1 67
e 1 70
e 1 71
e 1 72
e 1 74
e 2 3
e 2 6
e 2 11
e 2 15
e 2 16
e 2 17
e 2 21
e 2 23
e 2 27
e 2 28
e 2 33
e 2 35
e 2 40
e 2 46
e 2 53
e 2 54
e 2 56
e 2 59
e 2 61
e 2 63
e 2 71
e 2 74
e 3 5
e 3 10
e 3 15
e 3 18
e 3 21
e 3 24
e 3 27
e 3 30
e 3 35
e 3 43
e 3 46
e 3 47
e 3 53
e 3 54
e 3 60
e 3 61
e 3 62
e 3 69
e 3 72
e 3 74
e 4 5
e 4 12
e 4 18
e 4 20
e 4 31
e 4 38
e 4 39
e 4 40
e 4 47
e 4 65
e 4 67
e 4 72
e 4 74
e 5 7
e 5 10
e 5 12
e 5 18
e 5 19
e 5 23
e 5 24
e 5 35
e 5 36
e 5 37
e 5 38
e 5 42
e 5 43
e 5 47
e 5 50
e 5 51
e 5 55
e 5 59
e 5 68
e 5 72
e 5 74
e 6 10
e 6 14
e 6 19
e 6 20
e 6 21
e 6 22
e 6 23
e 6 27
e 6 28
e 6 30
e 6 35
e 6 38
e 6 42
e 6 45
e 6 53
e 6 59
e 6 60
e 6 61
e 6 63
e 6 66
e 6 72
e 7 12
e 7 20
e 7 21
e 7 23
e 7 27
e 7 29
e 7 30
e 7 39
e 7 44
e 7 45
e 7 46
e 7 49
e 7 51
e 7 54
e 7 65
e 7 71
e 8 9
e 8 10
e 8 12
e 8 15
e 8 19
e 8 20
e 8 23
e 8 24
e 8 26
e 8 30
e 8 36
e 8 37
e 8 38
e 8 39
e 8 41
e 8 43
e 8 47
e 8 50
e 8 57
e 8 59
e 8 60
e 8 62
e 8 63
e 8 64
e 9 17
e 9 18
e 9 22
e 9 34
e 9 36
e 9 38
e 9 42
e 9 47
e 9 51
e 9 54
e 9 60
e 9 61
e 9 63
e 9 64
e 9 66
e 9 67
e 9 72
e 9 73
e 9 74
e 10 11
e 10 17
e 10 21
e 10 26
e 10 27
e 10 28
e 10 32
e 10 40
e 10 41
e 10 44
e 10 46
e 10 51
e 10 52
e 10 53
e 10 54
e 10 56
e 10 58
e 10 59
e 10 64
e 10 70
e 10 72
e 10 73
e 10 74
e 11 19
e 11 20
e 11 21
e 11 23
e 11 26
e 11 27
e 11 34
e 11 36
e 11 37
e 11 41
e 11 42
e 11 44
e 11 52
e 11 74
e 12 13
e 12 14
e 12 20
e 12 26
e 12 29
e 12 30
e 12 31
e 12 37
e 12 38
e 12 45
e 12 46
e 12 50
e 12 52
e 12 55
e 12 60
e 12 61
e 12 64
e 12 66
e 12 69
e 13 14
e 13 20
e 13 22
e 13 27
e 13 34
e 13 43
e 13 45
e 13 47
e 13 50
e 13 53
e 13 59
e 13 65
e 13 66
e 13 69
e 14 18
e 14 22
e 14 23
e 14 36
e 14 38
e 14 39
e 14 45
e 14 50
e 14 51
e 14 54
e 14 58
e 14 59
e 14 60
e 14 64
e 14 70
e 14 71
e 14 72
e 14 73
e 15 16
e 15 19
e 15 21
e 15 22
e 15 25
e 15 31
e 15 36
e 15 37
e 15 47
e 15 50
e 15 51
e 15 53
e 15 54
e 15 58
e 15 63
e 15 64
e 15 65
e 15 73
e 16 19
e 16 20
e 16 24
e 16 25
e 16 26
e 16 27
e 16 28
e 16 31
e 16 33
e 16 35
e 16 36
e 16 39
e 16 42
e 16 44
e 16 50
e 16 55
e 16 61
e 16 65
e 16 69
e 16 70
e 16 71
e 16 73
e 17 20
e 17 28
e 17 30
e 17 32
e 17 52
e 17 56
e 17 58
e 17 59
e 17 61
e 17 66
e 17 69
e 17 70
e 17 71
e 17 74
e 18 20
e 18 30
e 18 33
e 18 36
e 18 46
e 18 48
e 18 55
e 18 56
e 18 57
e 18 60
e 18 61
e 18 62
e 18 64
e 18 65
e 18 71
e 18 74
e 19 20
e 19 33
e 19 38
e 19 44
e 19 47
e 19 51
e 19 54
e 19 59
e 19 62
e 19 63
e 19 67
e 19 68
e 19 71
e 20 21
e 20 23
e 20 31
e 20 34
e 20 37
e 20 38
e 20 40
e 20 42
e 20 47
e 20 48
e 20 55
e 20 57
e 20 59
e 20 60
e 20 63
e 20 67
e 20 71
e 20 73
e 21 22
e 21 25
e 21 26
e 21 30
e 21 31
e 21 32
e 21 35
e 21 36
e 21 41
e 21 45
e 21 48
e 21 62
e 21 63
e 21 64
e 21 66
e 21 69
e 21 73
e 22 24
e 22 27
e 22 29
e 22 34
e 22 35
e 22 36
e 22 37
e 22 42
e 22 44
e 22 47
e 22 55
e 22 57
e 22 58
e 22 61
e 22 66
e 22 68
e 23 24
e 23 32
e 23 42
e 23 46
e 23 48
e 23 52
e 23 54
e 23 58
e 23 64
e 23 68
e 23 69
e 23 71
e 23 73
e 24 33
e 24 35
e 24 36
e 24 43
e 24 44
e 24 46
e 24 47
e 24 51
e 24 52
e 24 60
e 24 64
e 24 70
e 24 74
e 25 27
e 25 30
e 25 36
e 25 44
e 25 57
e 25 60
e 25 70
e 25 72
e 26 27
e 26 28
e 26 35
e 26 43
e 26 47
e 26 48
e 26 49
e 26 51
e 26 53
e 26 55
e 26 56
e 26 58
e 26 63
e 26 64
e 26 67
e 26 70
e 26 71
e 26 72
e 27 30
e 27 34
e 27 37
e 27 40
e 27 45
e 27 50
e 27 56
e 27 57
e 27 58
e 27 59
e 27 63
e 27 65
e 27 66
e 27 67
e 27 69
e 27 73
e 28 29
e 28 38
e 28 39
e 28 44
e 28 45
e 28 51
e 28 59
e 28 62
e 28 63
e 28 68
e 29 33
e 29 34
e 29 45
e 29 48
e 29 55
e 29 57
e 29 59
e 29 65
e 29 66
e 29 72
e 29 74
e 30 37
e 30 39
e 30 40
e 30 43
e 30 45
e 30 46
e 30 47
e 30 53
e 30 59
e 30 62
e 30 63
e 30 67
e 30 71
e 30 72
e 31 32
e 31 37
e 31 41
e 31 44
e 31 50
e 31 51
e 31 54
e 31 55
e 31 59
e 31 61
e 31 63
e 31 65
e 31 69
e 32 33
e 32 35
e 32 36
e 32 37
e 32 51
e 32 57
e 32 58
e 32 59
e 32 63
e 32 65
e 32 68
e 32 71
e 32 72
e 33 40
e 33 41
e 33 46
e 33 47
e 33 48
e 33 49
e 33 50
e 33 54
e 33 57
e 33 59
e 33 60
e 33 61
e 33 64
e 33 66
e 33 68
e 33 70
e 34 37
e 34 38
e 34 43
e 34 44
e 34 50
e 34 51
e 34 52
e 34 59
e 34 61
e 34 74
e 35 38
e 35 39
e 35 40
e 35 52
e 35 58
e 35 60
e 35 61
e 35 63
e 35 69
e 35 71
e 35 73
e 35 74
e 36 38
e 36 39
e 36 42
e 36 44
e 36 47
e 36 48
e 36 57
e 36 58
e 36 65
e 36 66
e 36 67
e 36 69
e 36 71
e 37 39
e 37 40
e 37 42
e 37 46
e 37 52
e 37 53
e 37 56
e 37 57
e 37 59
e 37 61
e 37 62
e 37 64
e 37 66
e 37 67
e 38 49
e 38 50
e 38 54
e 38 57
e 38 62
e 38 66
e 38 71
e 38 74
e 39 41
e 39 44
e 39 45
e 39 47
e 39 48
e 39 49
e 39 57
e 39 59
e 39 61
e 39 63
e 39 69
e 39 73
e 40 45
e 40 47
e 40 49
e 40 53
e 40 55
e 40 59
e 40 64
e 40 66
e 40 68
e 40 69
e 40 70
e 40 74
e 41 45
e 41 48
e 41 49
e 41 53
e 41 57
e 41 59
e 41 61
e 41 62
e 41 65
e 41 66
e 41 72
e 42 47
e 42 49
e 42 64
e 42 66
e 42 70
e 42 72
e 42 73
e 43 49
e 43 53
e 43 54
e 43 55
e 43 59
e 43 62
e 43 68
e 43 69
e 43 70
e 43 74
e 44 46
e 44 48
e 44 49
e 44 53
e 44 54
e 44 58
e 44 60
e 44 68
e 44 71
e 44 72
e 45 53
e 45 58
e 45 61
e 45 67
e 45 68
e 45 74
e 46 48
e 46 49
e 46 50
e 46 51
e 46 55
e 46 56
e 46 59
e 46 63
e 46 69
e 46 70
e 46 71
e 46 73
e 47 50
e 47 51
e 47 55
e 47 58
e 47 60
e 47 61
e 47 62
e 47 68
e 47 69
e 47 70
e 47 71
e 47 73
e 48 50
e 48 52
e 48 54
e 48 60
e 48 65
e 48 66
e 48 72
e 48 74
e 49 50
e 49 53
e 49 59
e 49 62
e 49 63
e 49 66
e 49 69
e 49 70
e 49 71
e 49 73
e 50 55
e 50 57
e 50 60
e 50 63
e 50 66
e 50 74
e 51 59
e 51 67
e 51 71
e 51 74
e 52 54
e 52 56
e 52 57
e 52 60
e 52 65
e 52 70
e 52 72
e 53 56
e 53 57
e 53 58
e 53 59
e 53 60
e 53 63
e 53 64
e 53 65
e 53 69
e 53 74
e 54 58
e 54 66
e 54 68
e 54 69
e 55 57
e 55 58
e 55 62
e 55 63
e 55 67
e 55 72
e 55 73
e 56 59
e 56 63
e 56 65
e 56 66
e 56 69
e 57 60
e 57 64
e 57 67
e 57 68
e 57 70
e 58 61
e 58 66
e 58 67
e 58 69
e 58 72
e 59 61
e 59 64
e 59 65
e 59 68
e 59 69
e 59 70
e 59 71
e 60 62
e 60 63
e 60 65
e 60 74
e 61 62
e 61 68
e 61 72
e 62 63
e 62 67
e 62 74
e 63 66
e 63 70
e 64 66
e 64 71
e 64 72
e 64 73
e 65 66
e 65 67
e 65 69
e 65 72
e 65 73
e 65 74
e 66 67
e 66 68
e 66 73
e 66 74
e 67 69
e 67 74
e 68 69
e 68 70
e 69 70
e 70 72
e 71 72
e 71 74
e 72 73
e 73 74
